p cnf 55 185
c p weight 22 -1 0
c p weight -22 1 0
c p weight 24 6.12323399573676603586882014729198302312846062338790031898128063403419218957424163818359375E-17 0
c p weight -24 1 0
c p weight 25 1 0
c p weight -25 1 0
c p weight 26 -1 0
c p weight -26 1 0
c p weight 28 -1 0
c p weight -28 1 0
c p weight 31 -1 0
c p weight -31 1 0
c p weight 34 -1 0
c p weight -34 1 0
c p weight 37 -1 0
c p weight -37 1 0
c p weight 40 -1 0
c p weight -40 1 0
c p weight 43 -1 0
c p weight -43 1 0
c p weight 46 -1 0
c p weight -46 1 0
c p weight 49 -1 0
c p weight -49 1 0
c p weight 52 -1 0
c p weight -52 1 0
c p weight 55 -1 0
c p weight -55 1 0
-19 0
-17 0
-15 0
-13 0
-11 0
-9 0
-7 0
-5 0
-3 0
-1 0
21 19 -20 0
21 -19 20 0
-21 19 20 0
-21 -19 -20 0
-22 19 0
-22 20 0
22 -19 -20 0
23 -19 21 0
-23 19 21 0
-24 21 0
23 -24 -19 0
-23 -24 19 0
23 24 19 -21 0
-23 24 -19 -21 0
-25 21 0
23 -25 19 0
-23 -25 -19 0
23 25 -19 -21 0
-23 25 19 -21 0
-26 23 0
-26 21 0
-26 -19 0
26 -23 19 -21 0
27 23 -21 0
27 -23 21 0
-27 23 21 0
-27 -23 -21 0
-28 23 0
-28 21 0
28 -23 -21 0
29 23 -17 0
29 -23 17 0
-29 23 17 0
-29 -23 -17 0
30 27 -18 0
30 -27 18 0
-30 27 18 0
-30 -27 -18 0
-31 23 0
-31 18 0
-31 17 -27 0
-31 -17 27 0
31 -23 17 27 -18 0
31 -23 -17 -27 -18 0
32 29 -15 0
32 -29 15 0
-32 29 15 0
-32 -29 -15 0
33 18 -16 0
33 -18 16 0
-33 18 16 0
-33 -18 -16 0
-34 29 0
-34 16 0
-34 15 -18 0
-34 -15 18 0
34 -29 15 18 -16 0
34 -29 -15 -18 -16 0
35 32 -13 0
35 -32 13 0
-35 32 13 0
-35 -32 -13 0
36 16 -14 0
36 -16 14 0
-36 16 14 0
-36 -16 -14 0
-37 32 0
-37 14 0
-37 13 -16 0
-37 -13 16 0
37 -32 13 16 -14 0
37 -32 -13 -16 -14 0
38 35 -11 0
38 -35 11 0
-38 35 11 0
-38 -35 -11 0
39 14 -12 0
39 -14 12 0
-39 14 12 0
-39 -14 -12 0
-40 35 0
-40 12 0
-40 11 -14 0
-40 -11 14 0
40 -35 11 14 -12 0
40 -35 -11 -14 -12 0
41 38 -9 0
41 -38 9 0
-41 38 9 0
-41 -38 -9 0
42 12 -10 0
42 -12 10 0
-42 12 10 0
-42 -12 -10 0
-43 38 0
-43 10 0
-43 9 -12 0
-43 -9 12 0
43 -38 9 12 -10 0
43 -38 -9 -12 -10 0
44 41 -7 0
44 -41 7 0
-44 41 7 0
-44 -41 -7 0
45 10 -8 0
45 -10 8 0
-45 10 8 0
-45 -10 -8 0
-46 41 0
-46 8 0
-46 7 -10 0
-46 -7 10 0
46 -41 7 10 -8 0
46 -41 -7 -10 -8 0
47 44 -5 0
47 -44 5 0
-47 44 5 0
-47 -44 -5 0
48 8 -6 0
48 -8 6 0
-48 8 6 0
-48 -8 -6 0
-49 44 0
-49 6 0
-49 5 -8 0
-49 -5 8 0
49 -44 5 8 -6 0
49 -44 -5 -8 -6 0
50 47 -3 0
50 -47 3 0
-50 47 3 0
-50 -47 -3 0
51 6 -4 0
51 -6 4 0
-51 6 4 0
-51 -6 -4 0
-52 47 0
-52 4 0
-52 3 -6 0
-52 -3 6 0
52 -47 3 6 -4 0
52 -47 -3 -6 -4 0
53 50 -1 0
53 -50 1 0
-53 50 1 0
-53 -50 -1 0
54 4 -2 0
54 -4 2 0
-54 4 2 0
-54 -4 -2 0
-55 50 0
-55 2 0
-55 1 -4 0
-55 -1 4 0
55 -50 1 4 -2 0
55 -50 -1 -4 -2 0
-53 0
-50 0
-54 0
-47 0
-51 0
-44 0
-48 0
-41 0
-45 0
-38 0
-42 0
-35 0
-39 0
-32 0
-36 0
-29 0
-33 0
-23 0
-30 0
